\ Model instance_n=20_94
\ LP format - for model browsing. Use MPS format to capture full model detail.
Minimize
  y[1] + y[2] + y[3] + y[4] + y[5] + y[6] + y[7] + y[8] + y[9] + y[10]
Subject To
 Station[1]: - 1000 y[1] + 552 x[1,1] + 492 x[2,1] + 339 x[3,1]
   + 409 x[4,1] + 615 x[5,1] + 613 x[6,1] + 288 x[7,1] + 460 x[8,1]
   + 463 x[9,1] + 611 x[10,1] + 354 x[11,1] + 414 x[12,1] + 492 x[13,1]
   + 558 x[14,1] + 618 x[15,1] + 442 x[16,1] + 600 x[17,1] + 373 x[18,1]
   + 143 x[19,1] + 388 x[20,1] <= 0
 Station[2]: - 1000 y[2] + 552 x[1,2] + 492 x[2,2] + 339 x[3,2]
   + 409 x[4,2] + 615 x[5,2] + 613 x[6,2] + 288 x[7,2] + 460 x[8,2]
   + 463 x[9,2] + 611 x[10,2] + 354 x[11,2] + 414 x[12,2] + 492 x[13,2]
   + 558 x[14,2] + 618 x[15,2] + 442 x[16,2] + 600 x[17,2] + 373 x[18,2]
   + 143 x[19,2] + 388 x[20,2] <= 0
 Station[3]: - 1000 y[3] + 552 x[1,3] + 492 x[2,3] + 339 x[3,3]
   + 409 x[4,3] + 615 x[5,3] + 613 x[6,3] + 288 x[7,3] + 460 x[8,3]
   + 463 x[9,3] + 611 x[10,3] + 354 x[11,3] + 414 x[12,3] + 492 x[13,3]
   + 558 x[14,3] + 618 x[15,3] + 442 x[16,3] + 600 x[17,3] + 373 x[18,3]
   + 143 x[19,3] + 388 x[20,3] <= 0
 Station[4]: - 1000 y[4] + 552 x[1,4] + 492 x[2,4] + 339 x[3,4]
   + 409 x[4,4] + 615 x[5,4] + 613 x[6,4] + 288 x[7,4] + 460 x[8,4]
   + 463 x[9,4] + 611 x[10,4] + 354 x[11,4] + 414 x[12,4] + 492 x[13,4]
   + 558 x[14,4] + 618 x[15,4] + 442 x[16,4] + 600 x[17,4] + 373 x[18,4]
   + 143 x[19,4] + 388 x[20,4] <= 0
 Station[5]: - 1000 y[5] + 552 x[1,5] + 492 x[2,5] + 339 x[3,5]
   + 409 x[4,5] + 615 x[5,5] + 613 x[6,5] + 288 x[7,5] + 460 x[8,5]
   + 463 x[9,5] + 611 x[10,5] + 354 x[11,5] + 414 x[12,5] + 492 x[13,5]
   + 558 x[14,5] + 618 x[15,5] + 442 x[16,5] + 600 x[17,5] + 373 x[18,5]
   + 143 x[19,5] + 388 x[20,5] <= 0
 Station[6]: - 1000 y[6] + 552 x[1,6] + 492 x[2,6] + 339 x[3,6]
   + 409 x[4,6] + 615 x[5,6] + 613 x[6,6] + 288 x[7,6] + 460 x[8,6]
   + 463 x[9,6] + 611 x[10,6] + 354 x[11,6] + 414 x[12,6] + 492 x[13,6]
   + 558 x[14,6] + 618 x[15,6] + 442 x[16,6] + 600 x[17,6] + 373 x[18,6]
   + 143 x[19,6] + 388 x[20,6] <= 0
 Station[7]: - 1000 y[7] + 552 x[1,7] + 492 x[2,7] + 339 x[3,7]
   + 409 x[4,7] + 615 x[5,7] + 613 x[6,7] + 288 x[7,7] + 460 x[8,7]
   + 463 x[9,7] + 611 x[10,7] + 354 x[11,7] + 414 x[12,7] + 492 x[13,7]
   + 558 x[14,7] + 618 x[15,7] + 442 x[16,7] + 600 x[17,7] + 373 x[18,7]
   + 143 x[19,7] + 388 x[20,7] <= 0
 Station[8]: - 1000 y[8] + 552 x[1,8] + 492 x[2,8] + 339 x[3,8]
   + 409 x[4,8] + 615 x[5,8] + 613 x[6,8] + 288 x[7,8] + 460 x[8,8]
   + 463 x[9,8] + 611 x[10,8] + 354 x[11,8] + 414 x[12,8] + 492 x[13,8]
   + 558 x[14,8] + 618 x[15,8] + 442 x[16,8] + 600 x[17,8] + 373 x[18,8]
   + 143 x[19,8] + 388 x[20,8] <= 0
 Station[9]: - 1000 y[9] + 552 x[1,9] + 492 x[2,9] + 339 x[3,9]
   + 409 x[4,9] + 615 x[5,9] + 613 x[6,9] + 288 x[7,9] + 460 x[8,9]
   + 463 x[9,9] + 611 x[10,9] + 354 x[11,9] + 414 x[12,9] + 492 x[13,9]
   + 558 x[14,9] + 618 x[15,9] + 442 x[16,9] + 600 x[17,9] + 373 x[18,9]
   + 143 x[19,9] + 388 x[20,9] <= 0
 Station[10]: - 1000 y[10] + 552 x[1,10] + 492 x[2,10] + 339 x[3,10]
   + 409 x[4,10] + 615 x[5,10] + 613 x[6,10] + 288 x[7,10] + 460 x[8,10]
   + 463 x[9,10] + 611 x[10,10] + 354 x[11,10] + 414 x[12,10]
   + 492 x[13,10] + 558 x[14,10] + 618 x[15,10] + 442 x[16,10]
   + 600 x[17,10] + 373 x[18,10] + 143 x[19,10] + 388 x[20,10] <= 0
 Task[1]: x[1,1] + x[1,2] + x[1,3] + x[1,4] + x[1,5] + x[1,6] + x[1,7]
   + x[1,8] + x[1,9] + x[1,10] = 1
 Task[2]: x[2,1] + x[2,2] + x[2,3] + x[2,4] + x[2,5] + x[2,6] + x[2,7]
   + x[2,8] + x[2,9] + x[2,10] = 1
 Task[3]: x[3,1] + x[3,2] + x[3,3] + x[3,4] + x[3,5] + x[3,6] + x[3,7]
   + x[3,8] + x[3,9] + x[3,10] = 1
 Task[4]: x[4,1] + x[4,2] + x[4,3] + x[4,4] + x[4,5] + x[4,6] + x[4,7]
   + x[4,8] + x[4,9] + x[4,10] = 1
 Task[5]: x[5,1] + x[5,2] + x[5,3] + x[5,4] + x[5,5] + x[5,6] + x[5,7]
   + x[5,8] + x[5,9] + x[5,10] = 1
 Task[6]: x[6,1] + x[6,2] + x[6,3] + x[6,4] + x[6,5] + x[6,6] + x[6,7]
   + x[6,8] + x[6,9] + x[6,10] = 1
 Task[7]: x[7,1] + x[7,2] + x[7,3] + x[7,4] + x[7,5] + x[7,6] + x[7,7]
   + x[7,8] + x[7,9] + x[7,10] = 1
 Task[8]: x[8,1] + x[8,2] + x[8,3] + x[8,4] + x[8,5] + x[8,6] + x[8,7]
   + x[8,8] + x[8,9] + x[8,10] = 1
 Task[9]: x[9,1] + x[9,2] + x[9,3] + x[9,4] + x[9,5] + x[9,6] + x[9,7]
   + x[9,8] + x[9,9] + x[9,10] = 1
 Task[10]: x[10,1] + x[10,2] + x[10,3] + x[10,4] + x[10,5] + x[10,6]
   + x[10,7] + x[10,8] + x[10,9] + x[10,10] = 1
 Task[11]: x[11,1] + x[11,2] + x[11,3] + x[11,4] + x[11,5] + x[11,6]
   + x[11,7] + x[11,8] + x[11,9] + x[11,10] = 1
 Task[12]: x[12,1] + x[12,2] + x[12,3] + x[12,4] + x[12,5] + x[12,6]
   + x[12,7] + x[12,8] + x[12,9] + x[12,10] = 1
 Task[13]: x[13,1] + x[13,2] + x[13,3] + x[13,4] + x[13,5] + x[13,6]
   + x[13,7] + x[13,8] + x[13,9] + x[13,10] = 1
 Task[14]: x[14,1] + x[14,2] + x[14,3] + x[14,4] + x[14,5] + x[14,6]
   + x[14,7] + x[14,8] + x[14,9] + x[14,10] = 1
 Task[15]: x[15,1] + x[15,2] + x[15,3] + x[15,4] + x[15,5] + x[15,6]
   + x[15,7] + x[15,8] + x[15,9] + x[15,10] = 1
 Task[16]: x[16,1] + x[16,2] + x[16,3] + x[16,4] + x[16,5] + x[16,6]
   + x[16,7] + x[16,8] + x[16,9] + x[16,10] = 1
 Task[17]: x[17,1] + x[17,2] + x[17,3] + x[17,4] + x[17,5] + x[17,6]
   + x[17,7] + x[17,8] + x[17,9] + x[17,10] = 1
 Task[18]: x[18,1] + x[18,2] + x[18,3] + x[18,4] + x[18,5] + x[18,6]
   + x[18,7] + x[18,8] + x[18,9] + x[18,10] = 1
 Task[19]: x[19,1] + x[19,2] + x[19,3] + x[19,4] + x[19,5] + x[19,6]
   + x[19,7] + x[19,8] + x[19,9] + x[19,10] = 1
 Task[20]: x[20,1] + x[20,2] + x[20,3] + x[20,4] + x[20,5] + x[20,6]
   + x[20,7] + x[20,8] + x[20,9] + x[20,10] = 1
Bounds
Binaries
 y[1] y[2] y[3] y[4] y[5] y[6] y[7] y[8] y[9] y[10] x[1,1] x[1,2] x[1,3]
 x[1,4] x[1,5] x[1,6] x[1,7] x[1,8] x[1,9] x[1,10] x[2,1] x[2,2] x[2,3]
 x[2,4] x[2,5] x[2,6] x[2,7] x[2,8] x[2,9] x[2,10] x[3,1] x[3,2] x[3,3]
 x[3,4] x[3,5] x[3,6] x[3,7] x[3,8] x[3,9] x[3,10] x[4,1] x[4,2] x[4,3]
 x[4,4] x[4,5] x[4,6] x[4,7] x[4,8] x[4,9] x[4,10] x[5,1] x[5,2] x[5,3]
 x[5,4] x[5,5] x[5,6] x[5,7] x[5,8] x[5,9] x[5,10] x[6,1] x[6,2] x[6,3]
 x[6,4] x[6,5] x[6,6] x[6,7] x[6,8] x[6,9] x[6,10] x[7,1] x[7,2] x[7,3]
 x[7,4] x[7,5] x[7,6] x[7,7] x[7,8] x[7,9] x[7,10] x[8,1] x[8,2] x[8,3]
 x[8,4] x[8,5] x[8,6] x[8,7] x[8,8] x[8,9] x[8,10] x[9,1] x[9,2] x[9,3]
 x[9,4] x[9,5] x[9,6] x[9,7] x[9,8] x[9,9] x[9,10] x[10,1] x[10,2] x[10,3]
 x[10,4] x[10,5] x[10,6] x[10,7] x[10,8] x[10,9] x[10,10] x[11,1] x[11,2]
 x[11,3] x[11,4] x[11,5] x[11,6] x[11,7] x[11,8] x[11,9] x[11,10] x[12,1]
 x[12,2] x[12,3] x[12,4] x[12,5] x[12,6] x[12,7] x[12,8] x[12,9] x[12,10]
 x[13,1] x[13,2] x[13,3] x[13,4] x[13,5] x[13,6] x[13,7] x[13,8] x[13,9]
 x[13,10] x[14,1] x[14,2] x[14,3] x[14,4] x[14,5] x[14,6] x[14,7] x[14,8]
 x[14,9] x[14,10] x[15,1] x[15,2] x[15,3] x[15,4] x[15,5] x[15,6] x[15,7]
 x[15,8] x[15,9] x[15,10] x[16,1] x[16,2] x[16,3] x[16,4] x[16,5] x[16,6]
 x[16,7] x[16,8] x[16,9] x[16,10] x[17,1] x[17,2] x[17,3] x[17,4] x[17,5]
 x[17,6] x[17,7] x[17,8] x[17,9] x[17,10] x[18,1] x[18,2] x[18,3] x[18,4]
 x[18,5] x[18,6] x[18,7] x[18,8] x[18,9] x[18,10] x[19,1] x[19,2] x[19,3]
 x[19,4] x[19,5] x[19,6] x[19,7] x[19,8] x[19,9] x[19,10] x[20,1] x[20,2]
 x[20,3] x[20,4] x[20,5] x[20,6] x[20,7] x[20,8] x[20,9] x[20,10]
End
